14,1,9,2,13,1,12,2,2,3,10,2,4,3,1,1,19,1,6,1,16,4,8,1,18,2,20,4,17,4,3,5,7,5;15,1,11,2,10,1,16,1,3,1,20,1,12,4,13,3,5,3,4,5,19,2,1,3,6,3,17,1,2,5,8,3,14,4,7,3,18,5;2,1,4,1,11,1,12,1,11,3,5,1,15,2,13,2,16,2,20,2,14,3,10,4,9,4,1,2,3,3,8,2,19,3,17,3,15,5,18,3,1,5,6,5,7,4;18,1,2,2,14,2,9,3,7,2,12,3,11,5,15,4,4,4,13,4,5,4,10,5,16,5,1,4,3,4,19,4,20,5,8,5,17,5;9,1,7,1,4,2,11,4,5,2,15,3,2,4,10,3,16,3,3,2,6,2,9,5,13,5,20,3,12,5,17,2,5,5,6,4,8,4,19,5,18,4,14,5;
